path="C:/Users/15217/Desktop/gnn-rl-for-amod/saved_files/cplex_logs/rebalancing/scenario_nyc4/res_0.dat";
edgeAttr={<1, 2, 0, 6.0>, <1, 3, 0, 4.0>, <2, 1, 0, 6.0>, <2, 6, 0, 5.0>, <3, 1, 0, 4.0>, <3, 4, 0, 4.0>, <3, 12, 0, 4.0>, <6, 2, 0, 5.0>, <6, 5, 0, 4.0>, <6, 8, 0, 2.0>, <4, 3, 0, 4.0>, <4, 5, 0, 2.0>, <4, 11, 0, 6.0>, <12, 3, 0, 4.0>, <12, 11, 0, 6.0>, <12, 13, 0, 3.0>, <5, 4, 0, 2.0>, <5, 6, 0, 4.0>, <5, 9, 0, 5.0>, <11, 4, 0, 6.0>, <11, 10, 0, 5.0>, <11, 12, 0, 6.0>, <11, 14, 0, 4.0>, <9, 5, 0, 5.0>, <9, 8, 0, 10.0>, <9, 10, 0, 3.0>, <8, 6, 0, 2.0>, <8, 7, 0, 3.0>, <8, 9, 0, 10.0>, <8, 16, 0, 5.0>, <7, 8, 0, 3.0>, <7, 18, 0, 2.0>, <18, 7, 0, 2.0>, <18, 16, 0, 3.0>, <18, 20, 0, 4.0>, <16, 8, 0, 5.0>, <16, 10, 0, 4.0>, <16, 17, 0, 2.0>, <16, 18, 0, 3.0>, <10, 9, 0, 3.0>, <10, 11, 0, 5.0>, <10, 15, 0, 6.0>, <10, 16, 0, 4.0>, <10, 17, 0, 8.0>, <15, 10, 0, 6.0>, <15, 14, 0, 5.0>, <15, 19, 0, 3.0>, <15, 22, 0, 3.0>, <17, 10, 0, 8.0>, <17, 16, 0, 2.0>, <17, 19, 0, 2.0>, <14, 11, 0, 4.0>, <14, 15, 0, 5.0>, <14, 23, 0, 4.0>, <13, 12, 0, 3.0>, <13, 24, 0, 4.0>, <24, 13, 0, 4.0>, <24, 21, 0, 3.0>, <24, 23, 0, 2.0>, <23, 14, 0, 4.0>, <23, 22, 0, 4.0>, <23, 24, 0, 2.0>, <19, 15, 0, 3.0>, <19, 17, 0, 2.0>, <19, 20, 0, 4.0>, <22, 15, 0, 3.0>, <22, 20, 0, 5.0>, <22, 21, 0, 2.0>, <22, 23, 0, 4.0>, <20, 18, 0, 4.0>, <20, 19, 0, 4.0>, <20, 21, 0, 6.0>, <20, 22, 0, 5.0>, <21, 20, 0, 6.0>, <21, 22, 0, 2.0>, <21, 24, 0, 3.0>};
accInitTuple={<1, 18>, <2, 1>, <3, 13>, <6, 15>, <4, 18>, <12, 0>, <5, 6>, <11, 14>, <9, 26>, <8, 1>, <7, 26>, <18, 0>, <16, 20>, <10, 0>, <15, 5>, <17, 0>, <14, 16>, <13, 15>, <24, 10>, <23, 2>, <19, 0>, <22, 19>, <20, 30>, <21, 23>};
accRLTuple={<1, 0>, <2, 7>, <3, 1>, <6, 0>, <4, 1>, <12, 2>, <5, 1>, <11, 0>, <9, 7>, <8, 4>, <7, 2>, <18, 13>, <16, 15>, <10, 0>, <15, 10>, <17, 3>, <14, 4>, <13, 2>, <24, 7>, <23, 1>, <19, 7>, <22, 0>, <20, 4>, <21, 2>};
